1337
0	107	212	305	404
0	194	261	315	400
60	132	242	383	405
0	48	151	178	212
37	170	284	339	460
54	195	300	457	512
80	308	470	483	564
0	223	345	482	617
0	400	569	651	742
367	517	618	734	784
502	566	651	729	813
256	683	729	807	878
110	440	751	832	966
163	258	655	717	831
220	544	905	1014	1092
12	350	813	903	968
513	669	989	999	1072
64	378	733	871	968
473	566	839	1007	1072
818	1092	1177	1220	1305
